
Gurobi 5.6.3 (linux64) logging started Fri Sep 19 15:35:29 2014


Gurobi 5.6.3 (linux64) logging started Fri Sep 19 15:35:40 2014


Gurobi 5.6.3 (linux64) logging started Fri Sep 19 15:35:48 2014


Gurobi 5.6.3 (linux64) logging started Thu Sep 25 10:36:30 2014


Gurobi 5.6.3 (linux64) logging started Thu Sep 25 10:39:23 2014


Gurobi 5.6.3 (linux64) logging started Tue Oct  7 14:45:06 2014


Gurobi 5.6.3 (linux64) logging started Tue Oct  7 14:45:37 2014


Gurobi 5.6.3 (linux64) logging started Tue Oct  7 14:45:50 2014


Gurobi 5.6.3 (linux64) logging started Tue Oct  7 14:47:56 2014


Gurobi 5.6.3 (linux64) logging started Tue Oct  7 14:57:20 2014


Gurobi 5.6.3 (linux64) logging started Tue Oct  7 14:58:15 2014


Gurobi 5.6.3 (linux64) logging started Tue Oct  7 14:58:52 2014


Gurobi 5.6.3 (linux64) logging started Tue Oct  7 15:02:03 2014


Gurobi 5.6.3 (linux64) logging started Wed Oct  8 20:43:30 2014


Gurobi 5.6.3 (linux64) logging started Wed Oct  8 20:44:38 2014


Gurobi 5.6.3 (linux64) logging started Fri Oct 10 21:45:11 2014


Gurobi 5.6.3 (linux64) logging started Fri Oct 10 21:46:07 2014


Gurobi 5.6.3 (linux64) logging started Tue Oct 28 12:02:20 2014


Gurobi 5.6.3 (linux64) logging started Tue Oct 28 12:02:42 2014


Gurobi 5.6.3 (linux64) logging started Tue Oct 28 12:03:36 2014


Gurobi 5.6.3 (linux64) logging started Tue Oct 28 12:04:05 2014


Gurobi 5.6.3 (linux64) logging started Tue Oct 28 12:05:37 2014


Gurobi 5.6.3 (linux64) logging started Tue Oct 28 14:15:16 2014


Gurobi 5.6.3 (linux64) logging started Tue Oct 28 15:00:23 2014


Gurobi 5.6.3 (linux64) logging started Tue Oct 28 15:01:42 2014


Gurobi 5.6.3 (linux64) logging started Tue Oct 28 15:03:28 2014


Gurobi 5.6.3 (linux64) logging started Tue Oct 28 15:03:40 2014


Gurobi 5.6.3 (linux64) logging started Tue Oct 28 15:04:25 2014


Gurobi 5.6.3 (linux64) logging started Tue Oct 28 15:05:01 2014


Gurobi 5.6.3 (linux64) logging started Tue Oct 28 15:07:24 2014


Gurobi 5.6.3 (linux64) logging started Tue Oct 28 15:08:13 2014


Gurobi 5.6.3 (linux64) logging started Tue Oct 28 15:16:42 2014


Gurobi 5.6.3 (linux64) logging started Tue Oct 28 15:33:56 2014


Gurobi 5.6.3 (linux64) logging started Tue Oct 28 15:34:52 2014


Gurobi 5.6.3 (linux64) logging started Tue Oct 28 15:37:27 2014


Gurobi 5.6.3 (linux64) logging started Tue Oct 28 15:43:41 2014


Gurobi 5.6.3 (linux64) logging started Tue Oct 28 15:43:49 2014


Gurobi 5.6.3 (linux64) logging started Tue Oct 28 15:43:55 2014


Gurobi 5.6.3 (linux64) logging started Tue Oct 28 15:45:02 2014


Gurobi 5.6.3 (linux64) logging started Tue Oct 28 15:45:37 2014


Gurobi 5.6.3 (linux64) logging started Tue Oct 28 16:08:42 2014


Gurobi 5.6.3 (linux64) logging started Tue Oct 28 17:19:53 2014


Gurobi 5.6.3 (linux64) logging started Tue Oct 28 17:21:59 2014


Gurobi 5.6.3 (linux64) logging started Tue Oct 28 17:22:29 2014


Gurobi 5.6.3 (linux64) logging started Tue Oct 28 17:22:55 2014


Gurobi 5.6.3 (linux64) logging started Tue Oct 28 17:23:47 2014


Gurobi 5.6.3 (linux64) logging started Tue Oct 28 17:26:14 2014


Gurobi 5.6.3 (linux64) logging started Tue Oct 28 17:26:27 2014


Gurobi 5.6.3 (linux64) logging started Tue Oct 28 17:29:04 2014


Gurobi 5.6.3 (linux64) logging started Tue Oct 28 17:30:56 2014


Gurobi 5.6.3 (linux64) logging started Wed Oct 29 19:57:36 2014


Gurobi 5.6.3 (linux64) logging started Thu Oct 30 07:42:53 2014


Gurobi 5.6.3 (linux64) logging started Thu Oct 30 07:44:55 2014


Gurobi 5.6.3 (linux64) logging started Thu Oct 30 10:15:17 2014


Gurobi 5.6.3 (linux64) logging started Thu Oct 30 10:19:21 2014


Gurobi 5.6.3 (linux64) logging started Thu Oct 30 10:23:54 2014


Gurobi 5.6.3 (linux64) logging started Thu Oct 30 10:25:37 2014


Gurobi 5.6.3 (linux64) logging started Thu Oct 30 10:27:40 2014


Gurobi 5.6.3 (linux64) logging started Thu Oct 30 11:00:09 2014


Gurobi 5.6.3 (linux64) logging started Thu Oct 30 11:24:32 2014


Gurobi 5.6.3 (linux64) logging started Thu Oct 30 16:45:24 2014


Gurobi 5.6.3 (linux64) logging started Thu Oct 30 16:45:44 2014


Gurobi 5.6.3 (linux64) logging started Thu Oct 30 17:13:32 2014


Gurobi 5.6.3 (linux64) logging started Thu Oct 30 17:14:13 2014


Gurobi 5.6.3 (linux64) logging started Thu Oct 30 22:02:15 2014


Gurobi 5.6.3 (linux64) logging started Tue Nov  4 11:37:44 2014


Gurobi 5.6.3 (linux64) logging started Tue Nov  4 14:37:10 2014


Gurobi 5.6.3 (linux64) logging started Tue Nov  4 14:53:42 2014


Gurobi 5.6.3 (linux64) logging started Tue Nov  4 15:09:27 2014


Gurobi 5.6.3 (linux64) logging started Tue Nov  4 15:10:59 2014


Gurobi 5.6.3 (linux64) logging started Tue Nov  4 15:11:16 2014


Gurobi 5.6.3 (linux64) logging started Tue Nov  4 15:11:33 2014


Gurobi 5.6.3 (linux64) logging started Tue Nov  4 15:11:46 2014


Gurobi 5.6.3 (linux64) logging started Tue Nov  4 15:12:30 2014


Gurobi 5.6.3 (linux64) logging started Tue Nov  4 15:16:16 2014


Gurobi 5.6.3 (linux64) logging started Tue Nov  4 15:16:26 2014


Gurobi 5.6.3 (linux64) logging started Tue Nov  4 15:16:56 2014


Gurobi 5.6.3 (linux64) logging started Tue Nov  4 15:18:58 2014


Gurobi 5.6.3 (linux64) logging started Tue Nov  4 15:19:50 2014


Gurobi 5.6.3 (linux64) logging started Tue Nov  4 15:22:25 2014


Gurobi 5.6.3 (linux64) logging started Tue Nov  4 15:23:38 2014


Gurobi 5.6.3 (linux64) logging started Tue Nov  4 15:24:02 2014


Gurobi 5.6.3 (linux64) logging started Tue Nov  4 15:26:02 2014


Gurobi 5.6.3 (linux64) logging started Tue Nov  4 15:26:22 2014


Gurobi 5.6.3 (linux64) logging started Tue Nov  4 15:26:45 2014


Gurobi 5.6.3 (linux64) logging started Tue Nov  4 15:26:54 2014


Gurobi 5.6.3 (linux64) logging started Tue Nov  4 15:27:04 2014


Gurobi 5.6.3 (linux64) logging started Tue Nov  4 15:27:20 2014


Gurobi 5.6.3 (linux64) logging started Tue Nov  4 15:27:36 2014


Gurobi 5.6.3 (linux64) logging started Tue Nov  4 15:28:23 2014


Gurobi 5.6.3 (linux64) logging started Tue Nov  4 15:29:32 2014


Gurobi 5.6.3 (linux64) logging started Tue Nov  4 15:30:12 2014


Gurobi 5.6.3 (linux64) logging started Tue Nov  4 16:01:19 2014


Gurobi 5.6.3 (linux64) logging started Tue Nov  4 16:01:28 2014


Gurobi 5.6.3 (linux64) logging started Tue Nov  4 16:02:39 2014


Gurobi 5.6.3 (linux64) logging started Tue Nov  4 16:03:47 2014


Gurobi 5.6.3 (linux64) logging started Tue Nov  4 16:55:36 2014


Gurobi 5.6.3 (linux64) logging started Wed Nov 12 08:14:54 2014


Gurobi 5.6.3 (linux64) logging started Thu Nov 13 14:13:26 2014


Gurobi 5.6.3 (linux64) logging started Thu Nov 13 15:04:02 2014


Gurobi 5.6.3 (linux64) logging started Thu Nov 13 15:04:59 2014


Gurobi 5.6.3 (linux64) logging started Thu Nov 13 15:05:22 2014


Gurobi 5.6.3 (linux64) logging started Thu Nov 13 15:06:03 2014


Gurobi 5.6.3 (linux64) logging started Thu Nov 13 15:06:19 2014


Gurobi 5.6.3 (linux64) logging started Thu Nov 13 15:07:39 2014


Gurobi 5.6.3 (linux64) logging started Thu Nov 13 15:08:13 2014


Gurobi 5.6.3 (linux64) logging started Thu Nov 13 15:09:13 2014


Gurobi 5.6.3 (linux64) logging started Thu Nov 13 15:09:52 2014


Gurobi 5.6.3 (linux64) logging started Tue Jun  9 19:39:00 2015


Gurobi 5.6.3 (linux64) logging started Tue Jun  9 19:40:44 2015


Gurobi 5.6.3 (linux64) logging started Tue Jun  9 19:40:44 2015


Gurobi 5.6.3 (linux64) logging started Tue Jun  9 19:41:52 2015


Gurobi 5.6.3 (linux64) logging started Tue Jun  9 19:42:57 2015


Gurobi 5.6.3 (linux64) logging started Tue Jun  9 19:43:27 2015


Gurobi 5.6.3 (linux64) logging started Tue Jun  9 19:43:59 2015


Gurobi 5.6.3 (linux64) logging started Tue Jun  9 19:44:06 2015


Gurobi 5.6.3 (linux64) logging started Tue Jun  9 19:44:30 2015


Gurobi 5.6.3 (linux64) logging started Tue Jun  9 19:47:58 2015


Gurobi 5.6.3 (linux64) logging started Tue Jun  9 19:52:53 2015


Gurobi 5.6.3 (linux64) logging started Tue Jun  9 19:53:00 2015


Gurobi 5.6.3 (linux64) logging started Fri Jun 12 19:51:56 2015


Gurobi 5.6.3 (linux64) logging started Fri Jun 12 19:52:52 2015


Gurobi 5.6.3 (linux64) logging started Sat Jun 13 07:06:14 2015


Gurobi 5.6.3 (linux64) logging started Sat Jun 13 09:19:37 2015


Gurobi 5.6.3 (linux64) logging started Sat Jun 13 09:21:39 2015


Gurobi 5.6.3 (linux64) logging started Sat Jun 13 09:22:01 2015


Gurobi 5.6.3 (linux64) logging started Sat Jun 13 09:22:32 2015


Gurobi 5.6.3 (linux64) logging started Sat Jun 13 09:28:53 2015


Gurobi 5.6.3 (linux64) logging started Sat Jun 13 11:16:46 2015


Gurobi 5.6.3 (linux64) logging started Sat Jun 13 11:28:48 2015


Gurobi 5.6.3 (linux64) logging started Sat Jun 13 12:52:19 2015


Gurobi 5.6.3 (linux64) logging started Sat Jun 13 12:54:00 2015


Gurobi 5.6.3 (linux64) logging started Sat Jun 13 12:55:24 2015


Gurobi 5.6.3 (linux64) logging started Mon Jun 15 09:59:13 2015


Gurobi 5.6.3 (linux64) logging started Mon Jun 15 10:10:46 2015


Gurobi 5.6.3 (linux64) logging started Mon Jun 15 10:10:52 2015


Gurobi 5.6.3 (linux64) logging started Mon Jun 15 10:11:16 2015


Gurobi 5.6.3 (linux64) logging started Mon Jun 15 10:11:32 2015


Gurobi 5.6.3 (linux64) logging started Mon Jun 15 10:11:49 2015


Gurobi 5.6.3 (linux64) logging started Mon Jun 15 10:13:37 2015


Gurobi 5.6.3 (linux64) logging started Mon Jun 15 10:15:44 2015


Gurobi 5.6.3 (linux64) logging started Mon Jun 15 10:15:57 2015


Gurobi 5.6.3 (linux64) logging started Mon Jun 15 10:16:16 2015


Gurobi 5.6.3 (linux64) logging started Mon Jun 15 10:16:35 2015


Gurobi 5.6.3 (linux64) logging started Mon Jun 15 10:17:01 2015


Gurobi 5.6.3 (linux64) logging started Mon Jun 15 10:18:02 2015


Gurobi 5.6.3 (linux64) logging started Mon Jun 15 10:18:17 2015


Gurobi 5.6.3 (linux64) logging started Mon Jun 15 10:18:36 2015


Gurobi 5.6.3 (linux64) logging started Mon Jun 15 10:18:55 2015


Gurobi 5.6.3 (linux64) logging started Mon Jun 15 10:20:08 2015


Gurobi 5.6.3 (linux64) logging started Mon Jun 15 10:20:54 2015


Gurobi 5.6.3 (linux64) logging started Mon Jun 15 10:21:52 2015


Gurobi 5.6.3 (linux64) logging started Mon Jun 15 10:22:03 2015


Gurobi 5.6.3 (linux64) logging started Mon Jun 15 10:23:55 2015


Gurobi 5.6.3 (linux64) logging started Mon Jun 15 10:24:57 2015


Gurobi 5.6.3 (linux64) logging started Mon Jun 15 10:26:13 2015


Gurobi 5.6.3 (linux64) logging started Mon Jun 15 10:27:09 2015


Gurobi 5.6.3 (linux64) logging started Mon Jun 15 10:27:47 2015


Gurobi 5.6.3 (linux64) logging started Mon Jun 15 10:28:37 2015


Gurobi 5.6.3 (linux64) logging started Tue Jun 16 07:43:08 2015


Gurobi 5.6.3 (linux64) logging started Tue Jun 16 07:43:57 2015


Gurobi 5.6.3 (linux64) logging started Tue Jun 16 07:48:13 2015


Gurobi 5.6.3 (linux64) logging started Tue Jun 16 07:49:15 2015


Gurobi 5.6.3 (linux64) logging started Tue Jun 16 07:51:58 2015


Gurobi 5.6.3 (linux64) logging started Tue Jun 16 07:52:27 2015


Gurobi 5.6.3 (linux64) logging started Tue Jun 16 07:52:42 2015


Gurobi 5.6.3 (linux64) logging started Tue Jun 16 07:55:57 2015


Gurobi 5.6.3 (linux64) logging started Tue Jun 16 10:18:19 2015


Gurobi 5.6.3 (linux64) logging started Tue Jun 16 10:18:45 2015


Gurobi 5.6.3 (linux64) logging started Tue Jun 16 10:29:52 2015


Gurobi 5.6.3 (linux64) logging started Tue Jun 16 10:33:31 2015


Gurobi 5.6.3 (linux64) logging started Tue Jun 16 10:34:52 2015


Gurobi 5.6.3 (linux64) logging started Tue Jun 16 10:35:20 2015


Gurobi 5.6.3 (linux64) logging started Tue Jun 16 10:35:47 2015


Gurobi 5.6.3 (linux64) logging started Tue Jun 16 10:36:17 2015


Gurobi 5.6.3 (linux64) logging started Tue Jun 16 10:36:36 2015


Gurobi 5.6.3 (linux64) logging started Tue Jun 16 10:37:31 2015


Gurobi 5.6.3 (linux64) logging started Tue Jun 16 10:41:04 2015


Gurobi 5.6.3 (linux64) logging started Wed Jun 24 10:33:25 2015


Gurobi 5.6.3 (linux64) logging started Wed Jun 24 10:35:11 2015


Gurobi 5.6.3 (linux64) logging started Wed Jun 24 10:35:22 2015


Gurobi 5.6.3 (linux64) logging started Wed Jun 24 10:35:52 2015


Gurobi 5.6.3 (linux64) logging started Wed Jun 24 10:37:18 2015


Gurobi 5.6.3 (linux64) logging started Wed Jun 24 10:45:34 2015


Gurobi 5.6.3 (linux64) logging started Wed Jun 24 10:48:18 2015


Gurobi 5.6.3 (linux64) logging started Wed Jun 24 11:01:14 2015


Gurobi 5.6.3 (linux64) logging started Wed Jun 24 11:02:13 2015


Gurobi 5.6.3 (linux64) logging started Wed Jun 24 11:04:44 2015


Gurobi 5.6.3 (linux64) logging started Tue Jun 30 09:48:55 2015


Gurobi 5.6.3 (linux64) logging started Tue Jun 30 09:49:29 2015


Gurobi 5.6.3 (linux64) logging started Tue Jun 30 10:06:16 2015


Gurobi 5.6.3 (linux64) logging started Tue Jun 30 10:20:12 2015


Gurobi 5.6.3 (linux64) logging started Tue Jun 30 10:20:59 2015

